#######################################
### Exact MIP solver for the HHCRSP ###
#######################################
-- Instance file: new-instances/HHCRSP_400_80_98_1.2_C_RC.txt
-- Max threads: 4
-- Time limit: 999999 seconds
-- Use initial solution: No
Trivial flow violations prevented generating 2767253 variables.
Version identifier: 20.1.0.0 | 2020-11-10 | 9bedb6d68
CPXPARAM_Threads                                 4
CPXPARAM_Emphasis_Memory                         1
CPXPARAM_TimeLimit                               999999
Tried aggregator 1 time.
Presolve has eliminated 82308 rows and 18254 columns...
LP Presolve eliminated 82308 rows and 18254 columns.
Reduced LP has 2945044 rows, 2793087 columns, and 82330056 nonzeros.
Presolve time = 87.32 sec. (17494.89 ticks)
Compression time = 20.36 sec. (5.57 ticks)
Compression reduced 1193.20 MB A matrix to 359.71 MB
Symmetry aggregator did 5000048 additional substitutions.
Elapsed time = 109.20 sec. (18272.13 ticks, 1 iterations)

Iteration log . . .
Iteration:     1   Dual objective     =             0.000000
Iteration:  1788   Dual objective     =           453.666667

Dual crossover.
  Dual:  Fixing 3434 variables.
     3433 DMoves:  Infeasibility  3.36669581e-12  Objective  4.56666667e+02
        0 DMoves:  Infeasibility  1.52232856e-12  Objective  4.56666667e+02
  Dual:  Pushed 66, exchanged 3368.
  Primal:  Fixing 2177 variables.
     2176 PMoves:  Infeasibility  1.38777878e-17  Objective  4.56666667e+02
        0 PMoves:  Infeasibility  1.38777878e-17  Objective  4.56666667e+02
  Primal:  Pushed 1989, exchanged 188.

Solution status from MIP model:
-- Processing time: 147.577 sec.
-- Memory used: 1890 MB
-- Best bound: inf
-- Obj value: 456.667
-- Gap: inf%
-- Total distance: 1370
-- Total tardiness: 0
-- Largest tardiness: 0
